
Z:\home\slack\apuntes\cardinalidades\codigo-v3>ampl CC.run 
=======================================
CPLEX 12.6.3.0: timelimit=1000
timing=2
mipdisplay=3
mipgap=1E-6
integrality=1E-8
feasibility=1E-9
Reduced MIQCP has 602 rows, 1500 columns, and 2400 nonzeros.
Reduced MIQCP has 300 binaries, 0 generals, 0 SOSs, and 0 indicators.
Reduced MIQCP has 300 quadratic constraints.
Probing time = 0.00 sec. (0.12 ticks)
MIP emphasis: balance optimality and feasibility.
MIP search method: dynamic search.
Parallel mode: deterministic, using up to 4 threads.
Root relaxation solution time = 0.00 sec. (0.61 ticks)

        Nodes                                         Cuts/
   Node  Left     Objective  IInf  Best Integer    Best Bound    ItCnt     Gap

      0     0        0.0000     0                      0.0000        0         
      0     0        0.0000     0                     Cone: 1        1         
      0     0        0.0000     0                     Cone: 2        2         
      0     0        0.0000     0                     Cone: 3        3         
      0     0        0.0000     0                     Cone: 4        4         
      0     0        0.0000     0                     Cone: 5        5         
      0     0        0.0000     0                     Cone: 6        6         
      0     0        0.1657     1                      0.1657       45         
*     0+    0                            0.1710        0.1657             3.08%
Found incumbent of value 0.171014 after 0.94 sec. (253.09 ticks)
*     0+    0                            0.1657        0.1657             0.00%
Found incumbent of value 0.165739 after 1.37 sec. (388.92 ticks)

Root node processing (before b&c):
  Real time             =    1.37 sec. (388.97 ticks)
Parallel b&c, 4 threads:
  Real time             =    0.00 sec. (0.00 ticks)
  Sync time (average)   =    0.00 sec.
  Wait time (average)   =    0.00 sec.
                          ------------
Total (root+branch&cut) =    1.37 sec. (388.97 ticks)

Times (seconds):
Input =  0
Solve =  1.96
Output = 0.01
CPLEX 12.6.3.0: optimal integer solution within mipgap or absmipgap; objective 0.1657387483
45 MIP simplex iterations
0 branch-and-bound nodes
absmipgap = 1.2179e-08, relmipgap = 7.34831e-08
Tried aggregator 2 times
No basis.
=======================================
CPLEX 12.6.3.0: timelimit=1000
timing=2
mipdisplay=3
mipgap=1E-6
integrality=1E-8
feasibility=1E-9

Times (seconds):
Input =  0.01
Solve =  0.27
Output = 0.13
CPLEX 12.6.3.0: optimal solution; objective 0.1500642873
29 barrier iterations
No basis.
=======================================
Gurobi 6.5.2: timelim=1000
logfreq=5
outlev=1
timing=1
mipgap=1E-6
Optimize a model with 1 rows, 900 columns and 300 nonzeros
Model has 301 quadratic constraints
Coefficient statistics:
  Matrix range    [1e+00, 1e+00]
  Objective range [9e-05, 1e+00]
  Bounds range    [1e+00, 1e+00]
  RHS range       [1e+00, 1e+00]
Presolve time: 0.01s
Presolved: 2 rows, 900 columns, 600 nonzeros
Variable types: 600 continuous, 300 integer (300 binary)

Root relaxation: objective -2.115570e-01, 0 iterations, 0.00 seconds

    Nodes    |    Current Node    |     Objective Bounds      |     Work
 Expl Unexpl |  Obj  Depth IntInf | Incumbent    BestBd   Gap | It/Node Time

     0     0   -0.00768    0    2          -   -0.00768      -     -    0s
H    0     0                       0.0285157   -0.00768   127%     -    0s
     0     0   -0.00413    0    2    0.02852   -0.00413   114%     -    0s
H    0     0                       0.0039453   -0.00413   205%     -    0s
     0     0   -0.00293    0    2    0.00395   -0.00293   174%     -    0s
H    0     0                       0.0039452   -0.00293   174%     -    0s
     0     2   -0.00194    0    2    0.00395   -0.00194   149%     -    0s
H   50    32                       0.0032952   -0.00161   149%   4.1    0s
H  137    50                       0.0027358   -0.00161   159%   4.1    0s
H 1209   142                       0.0021974   -0.00092   142%   5.9    0s
 16339   583    0.00049   87    -    0.00220    0.00005  97.9%   7.9    5s
H22118  1148                       0.0021972    0.00220  0.00%   7.9    8s

Explored 22118 nodes (174205 simplex iterations) in 8.25 seconds
Thread count was 4 (of 4 available processors)

Optimal solution found (tolerance 1.00e-06)
Best objective 2.197190041835e-03, best bound 2.197190041835e-03, gap 0.0%

Times (seconds):
Input =  0
Solve =  30.25 (summed over threads)
Output = 0
Elapsed = 8
Gurobi 6.5.2: optimal solution; objective 0.002197190042
42 barrier iterations
174205 simplex iterations
22118 branch-and-cut nodes
No dual variables returned.
=======================================
LOQO 7.03: ignoring integrality of 300 variables
LOQO 7.03: iteration limit (500 iterations, 580 evaluations)
primal objective 0.1522046117
  dual objective 0.1515231829
